Route #1:
Route #2: 11 18
Route #3: 12 27 3
Route #4: 16
Route #5: 17 26 6 7 25
Route #6: 13 19 20
Route #7: 2 28 4 15 31
Route #8: 30
Route #9: 1
Route #10: 9 10 8 22 23 21
Route #11: 29 24
Route #12: 5 14

Cost: 2139.9975270524155
